NAME : 10_3_3_1_(19).dat
COMMENT : Henke, Speranza, Wäscher, 2015
TYPE : MCVRP
DIMENSION : 11
EDGE_WEIGHT_TYPE : DISTANCE_MATRIX
CAPACITY : 1000
VEHICLES : 3
PRODUCT TYPES : 3
COMPARTMENTS : 3
NODE_COORD_SECTION
1 50 50
2 27.47 0.45
3 34.39 92.5
4 31.38 47.62
5 2.01 88.09
6 87.25 61.54
7 21.24 58.27
8 98.84 69.03
9 44.31 61.43
10 5.19 41.93
11 9.76 62.08
DEMAND_SECTION
1 0 0 0
2 0 103 0
3 210 0 0
4 0 180 0
5 241 0 0
6 0 52 0
7 100 0 0
8 0 0 320
9 110 0 0
10 0 145 0
11 138 0 0
DEPOT_SECTION
1
EOF